
Log started (V12.10.0.0) Fri Apr  2 11:15:17 2021

Warning, line 545: Name 's142' does not exist.
Warning, line 547: Name 's33' does not exist.

Problem 'asset.lp' read.
Read time = 0.00 sec. (0.04 ticks)
New value for default parallel thread count: 1
New value for time limit in seconds: 400
Version identifier: 12.10.0.0 | 2019-11-26 | 843d4de
CPXPARAM_Threads                                 1
CPXPARAM_TimeLimit                               400
Found incumbent of value 0.000000 after 0.00 sec. (0.01 ticks)
Tried aggregator 3 times.
MIP Presolve eliminated 178 rows and 123 columns.
MIP Presolve modified 320 coefficients.
Aggregator did 77 substitutions.
Reduced MIP has 129 rows, 158 columns, and 479 nonzeros.
Reduced MIP has 134 binaries, 17 generals, 0 SOSs, and 0 indicators.
Presolve time = 0.00 sec. (1.16 ticks)
Probing fixed 23 vars, tightened 9 bounds.
Probing time = 0.00 sec. (0.18 ticks)
Cover probing fixed 0 vars, tightened 13 bounds.
Tried aggregator 1 time.
MIP Presolve eliminated 104 rows and 86 columns.
MIP Presolve added 1 rows and 1 columns.
Reduced MIP has 26 rows, 70 columns, and 132 nonzeros.
Reduced MIP has 68 binaries, 2 generals, 0 SOSs, and 0 indicators.
Presolve time = 0.00 sec. (0.24 ticks)
Probing fixed 0 vars, tightened 1 bounds.
Probing time = 0.00 sec. (0.05 ticks)
Tried aggregator 1 time.
Detecting symmetries...
MIP Presolve eliminated 1 rows and 1 columns.
MIP Presolve added 1 rows and 1 columns.
Reduced MIP has 26 rows, 70 columns, and 132 nonzeros.
Reduced MIP has 68 binaries, 2 generals, 0 SOSs, and 0 indicators.
Presolve time = 0.00 sec. (0.13 ticks)
Probing time = 0.00 sec. (0.04 ticks)
Clique table members: 53.
MIP emphasis: balance optimality and feasibility.
MIP search method: dynamic search.
Parallel mode: none, using 1 thread.
Root relaxation solution time = 0.00 sec. (0.09 ticks)

        Nodes                                         Cuts/
   Node  Left     Objective  IInf  Best Integer    Best Bound    ItCnt     Gap

*     0+    0                           18.0000       82.0000           355.56%
      0     0       56.0000     3       18.0000       56.0000       17  211.11%
      0     0       54.0000     3       18.0000       Cuts: 9       25  200.00%
*     0+    0                           50.0000       54.0000             8.00%
      0     0       54.0000     3       50.0000       Cuts: 3       27    8.00%
      0     0       54.0000     3       50.0000       Cuts: 2       28    8.00%
*     0+    0                           52.0000       54.0000             3.85%

Repeating presolve.
Tried aggregator 1 time.
MIP Presolve eliminated 18 rows and 55 columns.
Reduced MIP has 8 rows, 15 columns, and 28 nonzeros.
Reduced MIP has 15 binaries, 0 generals, 0 SOSs, and 0 indicators.
Presolve time = 0.00 sec. (0.06 ticks)
Probing time = 0.00 sec. (0.01 ticks)
Tried aggregator 1 time.
Detecting symmetries...
Reduced MIP has 8 rows, 15 columns, and 28 nonzeros.
Reduced MIP has 15 binaries, 0 generals, 0 SOSs, and 0 indicators.
Presolve time = 0.00 sec. (0.02 ticks)
Represolve time = 0.00 sec. (0.18 ticks)
Probing time = 0.00 sec. (0.01 ticks)
Clique table members: 12.
MIP emphasis: balance optimality and feasibility.
MIP search method: dynamic search.
Parallel mode: none, using 1 thread.
Root relaxation solution time = 0.00 sec. (0.02 ticks)

        Nodes                                         Cuts/
   Node  Left     Objective  IInf  Best Integer    Best Bound    ItCnt     Gap

*     0+    0                           52.0000       54.0000             3.85%
      0     0       54.0000     5       52.0000       54.0000       37    3.85%
      0     0        cutoff             52.0000                     39     --- 
Elapsed time = 0.01 sec. (4.35 ticks, tree = 0.01 MB, solutions = 3)

GUB cover cuts applied:  2
Cover cuts applied:  2
Gomory fractional cuts applied:  1

Root node processing (before b&c):
  Real time             =    0.01 sec. (4.36 ticks)
Sequential b&c:
  Real time             =    0.00 sec. (0.00 ticks)
                          ------------
Total (root+branch&cut) =    0.01 sec. (4.36 ticks)

Solution pool: 4 solutions saved.

MIP - Integer optimal solution:  Objective =  5.2000000000e+01
Solution time =    0.01 sec.  Iterations = 39  Nodes = 0
Deterministic time = 4.36 ticks  (438.68 ticks/sec)


Incumbent solution
Variable Name           Solution Value
F                            52.000000
y210                          1.000000
y267                          1.000000
y51                           1.000000
y107                          1.000000
y60                           1.000000
y61                           1.000000
y136                          1.000000
y232                          1.000000
y174                          1.000000
x21x174x1                     1.000000
x71x210x1                     2.000000
x204x60x1                     1.000000
x235x232x1                    1.000000
x84x232x1                     1.000000
x233x60x1                     1.000000
x204x267x2                    1.000000
x189x174x2                    1.000000
x191x61x2                     1.000000
x72x51x2                      1.000000
x54x61x2                      1.000000
x21x107x3                     1.000000
x235x136x3                    1.000000
x84x136x3                     1.000000
x145x107x3                    1.000000
x72x51x3                      1.000000
x233x267x3                    1.000000
x210x0x1                      2.000000
x267x0x2                      1.000000
x267x0x3                      1.000000
x51x0x2                       1.000000
x51x0x3                       1.000000
x107x0x3                      2.000000
x60x0x1                       2.000000
x61x0x2                       2.000000
x136x0x3                      2.000000
x232x0x1                      2.000000
x174x0x1                      1.000000
x174x0x2                      1.000000
s21                           7.652489
s107                          9.010000
z21z107z3                     1.000000
s136                          9.320000
s150                          9.330000
z21z150z3                     1.000000
s74                           9.340000
z21z74z3                      1.000000
s232                          9.380000
z21z232z1                     1.000000
s174                          9.420000
z21z174z1                     1.000000
s71                           7.035195
s83                           7.650000
s210                          8.413651
z71z210z1                     1.000000
s60                           8.852716
z71z232z1                     1.000000
s204                          7.505859
s267                          8.826736
z204z267z2                    1.000000
s51                           8.792158
s22                           8.980000
s147                          9.020000
z204z60z1                     1.000000
s61                           9.200000
z204z61z2                     1.000000
z204z232z1                    1.000000
s235                          7.895227
z235z136z3                    1.000000
z235z150z3                    1.000000
z235z74z3                     1.000000
z235z232z1                    1.000000
s84                           7.851363
s24                           8.993360
z84z136z3                     1.000000
z84z150z3                     1.000000
z84z74z3                      1.000000
z84z232z1                     1.000000
s189                          7.971586
z189z232z1                    1.000000
z189z174z2                    1.000000
s191                          7.779814
z191z61z2                     1.000000
z191z232z1                    1.000000
s259                          8.046560
z259z74z3                     1.000000
s145                          6.838610
s124                          7.730000
s144                          8.757828
z145z107z3                    1.000000
s19                           9.160000
z145z19z3                     1.000000
z145z136z3                    1.000000
z145z150z3                    1.000000
z145z74z3                     1.000000
s72                           7.307930
z72z51z2                      1.000000
z72z51z3                      1.000000
z72z107z3                     1.000000
z72z19z3                      1.000000
z72z61z2                      1.000000
z72z150z3                     1.000000
z72z74z3                      1.000000
s54                           7.483090
z54z61z2                      1.000000
s233                          7.416030
z233z267z3                    1.000000
z233z107z3                    1.000000
z233z60z1                     1.000000
z233z19z3                     1.000000
z233z150z3                    1.000000
z233z74z3                     1.000000
z233z232z1                    1.000000
s65                           7.440000
All other variables in the range 1-364 are 0.
